0000000000000000
0000000000000000
0000000000000000
0000000000000000
0000011100000000
0000111110000000
0001100110000000
0000000110000000
0000011111000000
0000110011000000
0001100011100000
0000000000000000
0000000000000000
0000000000000000
0000000000000000
0000000000000000